NAME : mtspf.pid11579.gtsp.26643547.tour
COMMENT : Length = 26643547
COMMENT : Found by LKH [Keld Helsgaun] Sat Jan 11 16:45:22 2025
TYPE : TOUR
DIMENSION : 11
TOUR_SECTION
1
2
3
11
8
9
10
6
7
4
5
-1
EOF
